1111100 AB
335 361 387 413 447 481 515 549 584 619 654 689 724 759 794 829 852 875 898 922 945 968 992 1016 1039 1066 1094 1115 1137 1158 1187 1217 1247 1276 1305
1111100 BA
359 385 411 441 476 512 546 580 615 650 685 720 754 789 824 859 882 905 928 952 975 998 1022 1049 1072 1099 1127 1147 1167 1188 1215 1244 1274 1303 1331
0000011 AB
335 352 368 385 402 418 438 457 476 495 515 535 555 575 595 615 635 655 675 700 725 750 775 800 825 843 862 880 899 918 937 955 974 993 1012 1030 1046 1061 1076 1086 1096 1107 1118 1129 1140 1150 1160 1170 1180 1190 1200 1211 1226 1241 1260 1279 1298
0000011 BA
358 375 391 408 426 443 463 482 503 522 542 562 582 602 622 642 662 682 702 729 754 779 804 829 854 872 891 909 928 947 966 984 1003 1022 1039 1057 1073 1088 1103 1113 1123 1134 1145 1155 1166 1176 1186 1196 1206 1216 1226 1237 1252 1267 1286 1305 1324
